experiment/data/lkh-res/Vrp-Set-X-n376/Vrp-Set-X-n376-lkh/0.lkh1.vrp
NAME : 0
COMMENT : CVRP Instance
TYPE : CVRP
DIMENSION : 376
EDGE_WEIGHT_TYPE : EUC_2D
CAPACITY : 4
NODE_COORD_SECTION
1	0	0
2	98900	94400
3	500	73000
4	76900	20000
5	69800	51500
6	7200	56100
7	5200	39700
8	83900	27100
9	14000	72400
10	33900	58000
11	3000	85000
12	82000	81500
13	55500	84400
14	38800	70900
15	32300	43800
16	15900	98300
17	98900	23300
18	64400	16700
19	76600	15100
20	38700	69000
21	19300	14000
22	86300	19200
23	14900	12300
24	60900	11900
25	12100	20400
26	62500	53700
27	71600	12300
28	800	21900
29	42900	95600
30	84400	97000
31	66100	6600
32	34700	20200
33	97900	31400
34	25500	77200
35	63400	50400
36	46600	4800
37	33000	9000
38	92900	24500
39	23600	13000
40	78500	0
41	25100	48600
42	75800	20300
43	52400	28000
44	79800	7100
45	21200	59500
46	96700	47800
47	50400	42900
48	58100	53400
49	88300	89900
50	60500	41400
51	64000	69200
52	28700	43200
53	64100	77100
54	5300	37400
55	34400	32500
56	64700	7200
57	6300	97600
58	51900	23500
59	48500	22600
60	46900	52700
61	43300	16800
62	53800	89100
63	88400	43300
64	14200	13400
65	23400	39400
66	47300	75000
67	81500	62200
68	13000	99900
69	65500	58800
70	1600	23500
71	50300	61400
72	47700	48900
73	8700	7800
74	68900	28900
75	63100	86800
76	30400	74300
77	62400	8100
78	33800	86500
79	83100	98400
80	31200	15700
81	56300	20500
82	64100	43500
83	18900	20100
84	27700	90300
85	90600	94900
86	60100	48600
87	74600	90400
88	55700	40900
89	85400	20100
90	5000	2000
91	99400	11100
92	58400	87500
93	31600	74100
94	15000	5600
95	37700	98800
96	37100	76200
97	40100	74100
98	89000	12600
99	79700	33500
100	900	30100
101	92300	25900
102	58600	78200
103	10300	9900
104	16600	98700
105	89600	75000
106	38300	8600
107	60300	86300
108	59000	7800
109	4000	55400
110	75500	12000
111	55400	35100
112	60300	10200
113	27900	40400
114	100	48100
115	66700	93100
116	60900	35000
117	23700	92500
118	75500	77900
119	60700	10700
120	58900	37900
121	74400	13000
122	46900	14200
123	49100	2800
124	60200	51200
125	32900	92500
126	93300	71400
127	39100	98200
128	28500	33600
129	73000	60400
130	75800	15300
131	83100	89400
132	35500	20600
133	38200	35300
134	88700	13300
135	28600	83500
136	10300	74300
137	92900	75000
138	8900	84500
139	68900	51500
140	90300	33000
141	71300	26100
142	46500	49400
143	92200	78300
144	70300	61900
145	28200	74500
146	93900	80100
147	32000	13000
148	53100	2500
149	88700	94900
150	76500	50200
151	17400	18700
152	99300	23300
153	98200	1300
154	2500	85100
155	22800	22800
156	77400	69000
157	72200	96900
158	13300	11500
159	17500	66300
160	13400	10600
161	46900	23300
162	32500	7800
163	16600	54700
164	41600	96500
165	28400	11900
166	16900	54100
167	30200	7200
168	53700	700
169	43400	32900
170	5900	81600
171	13900	7400
172	49500	74600
173	89000	45300
174	71900	23500
175	18400	52800
176	86300	95700
177	82100	47600
178	70000	64500
179	40000	4900
180	29300	17900
181	10400	27100
182	88200	90600
183	70100	39400
184	1800	22100
185	81900	10100
186	97100	39700
187	45400	96000
188	34800	65700
189	74500	12200
190	300	51000
191	98100	28300
192	16700	32300
193	86900	88000
194	84400	15400
195	5300	54400
196	44300	82500
197	87900	80900
198	68300	25400
199	40200	5900
200	71900	3100
201	66400	73700
202	54100	24900
203	20400	79100
204	61500	57800
205	82100	38100
206	76700	59500
207	59400	83700
208	33100	36500
209	14500	85000
210	53700	26300
211	15700	93800
212	14700	5900
213	13800	14000
214	35400	24000
215	43500	97600
216	91700	59300
217	50400	64300
218	55200	2900
219	42000	47300
220	57600	66500
221	64800	63700
222	79200	14700
223	5500	9200
224	63500	23600
225	18000	79300
226	56100	62900
227	74300	13600
228	68600	3800
229	41500	67200
230	67800	52300
231	83400	4800
232	89700	6300
233	86800	22400
234	78600	39400
235	13200	91500
236	51300	7400
237	75700	29500
238	85900	82300
239	39800	95900
240	36000	9400
241	50600	11400
242	69900	90700
243	84200	4600
244	34100	91800
245	24000	80800
246	43400	75600
247	62800	18400
248	93800	59900
249	28700	88900
250	2200	99900
251	37400	1900
252	70700	96300
253	68100	76200
254	75000	27800
255	65200	34000
256	78800	9500
257	65300	22200
258	73000	75300
259	48400	57300
260	39500	85400
261	14400	95700
262	40400	59700
263	84900	28800
264	32100	35500
265	29400	4100
266	4300	50100
267	17500	69500
268	43900	48600
269	94900	44300
270	24500	16900
271	84800	14300
272	19800	39600
273	15300	52100
274	43600	82400
275	70300	62400
276	12600	200
277	65900	52300
278	37000	70200
279	52800	26800
280	33000	48800
281	42000	8800
282	63000	55500
283	56800	84800
284	99200	80000
285	9200	74700
286	12600	15200
287	1800	27500
288	87500	15100
289	53700	41800
290	59800	77700
291	52700	10400
292	81900	52200
293	31600	91500
294	11200	72700
295	69700	2900
296	24300	15500
297	19500	43700
298	56300	82000
299	58300	38300
300	64500	6200
301	64500	7700
302	17400	88400
303	19300	64300
304	9600	51900
305	33600	31900
306	99800	26600
307	99000	92200
308	75300	56600
309	64600	53700
310	41200	32800
311	38600	47800
312	34400	51200
313	15100	49200
314	62500	94900
315	25100	20800
316	68000	42800
317	13500	84300
318	17100	1900
319	40500	15000
320	14600	65400
321	8200	63100
322	41700	95000
323	12100	98200
324	20900	29200
325	18000	79600
326	5100	16200
327	62800	52100
328	91300	71400
329	82000	66200
330	59600	60000
331	60500	22900
332	37800	5300
333	9500	44700
334	89900	21600
335	68500	70500
336	30400	71300
337	30500	76000
338	63600	48200
339	95400	18900
340	47000	85700
341	45000	9700
342	81100	88600
343	45300	6400
344	23000	91900
345	73200	35000
346	25800	42900
347	67400	35100
348	2000	9500
349	5700	29800
350	13600	12900
351	6200	21300
352	85200	85200
353	53800	11000
354	43500	52200
355	51800	45200
356	81600	41500
357	98700	84900
358	47200	15400
359	89300	1300
360	57900	28100
361	41800	96600
362	39100	9200
363	49000	48200
364	89000	71100
365	55200	80200
366	66700	41600
367	57100	58100
368	7100	22700
369	31100	9000
370	59800	72300
371	84500	67700
372	52800	12400
373	32100	45600
374	81700	62400
375	97800	27600
376	23900	96000
DEMAND_SECTION
1	0
2	1
3	1
4	1
5	1
6	1
7	1
8	1
9	1
10	1
11	1
12	1
13	1
14	1
15	1
16	1
17	1
18	1
19	1
20	1
21	1
22	1
23	1
24	1
25	1
26	1
27	1
28	1
29	1
30	1
31	1
32	1
33	1
34	1
35	1
36	1
37	1
38	1
39	1
40	1
41	1
42	1
43	1
44	1
45	1
46	1
47	1
48	1
49	1
50	1
51	1
52	1
53	1
54	1
55	1
56	1
57	1
58	1
59	1
60	1
61	1
62	1
63	1
64	1
65	1
66	1
67	1
68	1
69	1
70	1
71	1
72	1
73	1
74	1
75	1
76	1
77	1
78	1
79	1
80	1
81	1
82	1
83	1
84	1
85	1
86	1
87	1
88	1
89	1
90	1
91	1
92	1
93	1
94	1
95	1
96	1
97	1
98	1
99	1
100	1
101	1
102	1
103	1
104	1
105	1
106	1
107	1
108	1
109	1
110	1
111	1
112	1
113	1
114	1
115	1
116	1
117	1
118	1
119	1
120	1
121	1
122	1
123	1
124	1
125	1
126	1
127	1
128	1
129	1
130	1
131	1
132	1
133	1
134	1
135	1
136	1
137	1
138	1
139	1
140	1
141	1
142	1
143	1
144	1
145	1
146	1
147	1
148	1
149	1
150	1
151	1
152	1
153	1
154	1
155	1
156	1
157	1
158	1
159	1
160	1
161	1
162	1
163	1
164	1
165	1
166	1
167	1
168	1
169	1
170	1
171	1
172	1
173	1
174	1
175	1
176	1
177	1
178	1
179	1
180	1
181	1
182	1
183	1
184	1
185	1
186	1
187	1
188	1
189	1
190	1
191	1
192	1
193	1
194	1
195	1
196	1
197	1
198	1
199	1
200	1
201	1
202	1
203	1
204	1
205	1
206	1
207	1
208	1
209	1
210	1
211	1
212	1
213	1
214	1
215	1
216	1
217	1
218	1
219	1
220	1
221	1
222	1
223	1
224	1
225	1
226	1
227	1
228	1
229	1
230	1
231	1
232	1
233	1
234	1
235	1
236	1
237	1
238	1
239	1
240	1
241	1
242	1
243	1
244	1
245	1
246	1
247	1
248	1
249	1
250	1
251	1
252	1
253	1
254	1
255	1
256	1
257	1
258	1
259	1
260	1
261	1
262	1
263	1
264	1
265	1
266	1
267	1
268	1
269	1
270	1
271	1
272	1
273	1
274	1
275	1
276	1
277	1
278	1
279	1
280	1
281	1
282	1
283	1
284	1
285	1
286	1
287	1
288	1
289	1
290	1
291	1
292	1
293	1
294	1
295	1
296	1
297	1
298	1
299	1
300	1
301	1
302	1
303	1
304	1
305	1
306	1
307	1
308	1
309	1
310	1
311	1
312	1
313	1
314	1
315	1
316	1
317	1
318	1
319	1
320	1
321	1
322	1
323	1
324	1
325	1
326	1
327	1
328	1
329	1
330	1
331	1
332	1
333	1
334	1
335	1
336	1
337	1
338	1
339	1
340	1
341	1
342	1
343	1
344	1
345	1
346	1
347	1
348	1
349	1
350	1
351	1
352	1
353	1
354	1
355	1
356	1
357	1
358	1
359	1
360	1
361	1
362	1
363	1
364	1
365	1
366	1
367	1
368	1
369	1
370	1
371	1
372	1
373	1
374	1
375	1
376	1
DEPOT_SECTION
1
-1
EOF
