experiment/data/lkh-res/Vrp-Set-X-n376/Vrp-Set-X-n376-lkh/0.lkh1.log
PARAMETER_FILE = baseline_results/cvrp_lkh/Vrp-Set-X-n376/Vrp-Set-X-n376-lkh/0.lkh1.par
Reading PROBLEM_FILE: "baseline_results/cvrp_lkh/Vrp-Set-X-n376/Vrp-Set-X-n376-lkh/0.lkh1.vrp" ... done
ASCENT_CANDIDATES = 50
BACKBONE_TRIALS = 0
BACKTRACKING = NO
# BWTSP =
# CANDIDATE_FILE =
CANDIDATE_SET_TYPE = ALPHA
# DISTANCE =
DEPOT = 1
# EDGE_FILE =
EXCESS = 0.00265957
EXTERNAL_SALESMEN = 0
EXTRA_CANDIDATES = 0 
EXTRA_CANDIDATE_SET_TYPE = QUADRANT
GAIN23 = NO
GAIN_CRITERION = YES
INITIAL_PERIOD = 188
INITIAL_STEP_SIZE = 1
INITIAL_TOUR_ALGORITHM = WALK
# INITIAL_TOUR_FILE = 
INITIAL_TOUR_FRACTION = 1.000
# INPUT_TOUR_FILE = 
KICK_TYPE = 4
KICKS = 1
# MAX_BREADTH =
MAKESPAN = NO
MAX_CANDIDATES = 5 
MAX_SWAPS = 0
MAX_TRIALS = 10000
# MERGE_TOUR_FILE =
MOVE_TYPE = 5 SPECIAL
MTSP_MIN_SIZE = 1
MTSP_MAX_SIZE = 375
# MTSP_SOLUTION_FILE = 
# NONSEQUENTIAL_MOVE_TYPE = 5
# OPTIMUM =
OUTPUT_TOUR_FILE = baseline_results/cvrp_lkh/Vrp-Set-X-n376/Vrp-Set-X-n376-lkh/0.lkh1.tour
PATCHING_A = 1 
PATCHING_C = 0 
# PI_FILE = 
POPMUSIC_INITIAL_TOUR = NO
POPMUSIC_MAX_NEIGHBORS = 5
POPMUSIC_SAMPLE_SIZE = 10
POPMUSIC_SOLUTIONS = 50
POPMUSIC_TRIALS = 1
POPULATION_SIZE = 10
PRECISION = 100
PROBLEM_FILE = baseline_results/cvrp_lkh/Vrp-Set-X-n376/Vrp-Set-X-n376-lkh/0.lkh1.vrp
RECOMBINATION = IPT
RESTRICTED_SEARCH = YES
RUNS = 1
SALESMEN = 94
SCALE = 1
SEED = 1234
# SINTEF_SOLUTION_FILE = 
STOP_AT_OPTIMUM = YES
SUBGRADIENT = YES
# SUBPROBLEM_SIZE =
# SUBPROBLEM_TOUR_FILE = 
SUBSEQUENT_MOVE_TYPE = 5 SPECIAL
SUBSEQUENT_PATCHING = YES
# TIME_LIMIT =
# TOTAL_TIME_LIMIT =
# TOUR_FILE = 
TRACE_LEVEL = 1
VEHICLES = 94

Lower bound = 7701630.1, Ascent time = 0.21 sec.
Cand.min = 2, Cand.avg = 5.0, Cand.max = 5
Preprocessing time = 0.22 sec.
* 1: Cost = 0_15118407, Time = 0.67 sec. 
Writing OUTPUT_TOUR_FILE: "baseline_results/cvrp_lkh/Vrp-Set-X-n376/Vrp-Set-X-n376-lkh/0.lkh1.tour" ... done
* 8: Cost = 0_15076410, Time = 1.22 sec. 
Writing OUTPUT_TOUR_FILE: "baseline_results/cvrp_lkh/Vrp-Set-X-n376/Vrp-Set-X-n376-lkh/0.lkh1.tour" ... done
* 9: Cost = 0_15001160, Time = 1.28 sec. 
Writing OUTPUT_TOUR_FILE: "baseline_results/cvrp_lkh/Vrp-Set-X-n376/Vrp-Set-X-n376-lkh/0.lkh1.tour" ... done
* 13: Cost = 0_14997929, Time = 1.36 sec. 
Writing OUTPUT_TOUR_FILE: "baseline_results/cvrp_lkh/Vrp-Set-X-n376/Vrp-Set-X-n376-lkh/0.lkh1.tour" ... done
* 19: Cost = 0_14997500, Time = 1.46 sec. 
Writing OUTPUT_TOUR_FILE: "baseline_results/cvrp_lkh/Vrp-Set-X-n376/Vrp-Set-X-n376-lkh/0.lkh1.tour" ... done
* 21: Cost = 0_14996937, Time = 1.53 sec. 
Writing OUTPUT_TOUR_FILE: "baseline_results/cvrp_lkh/Vrp-Set-X-n376/Vrp-Set-X-n376-lkh/0.lkh1.tour" ... done
* 23: Cost = 0_14992505, Time = 1.53 sec. 
Writing OUTPUT_TOUR_FILE: "baseline_results/cvrp_lkh/Vrp-Set-X-n376/Vrp-Set-X-n376-lkh/0.lkh1.tour" ... done
* 37: Cost = 0_14988025, Time = 1.71 sec. 
Writing OUTPUT_TOUR_FILE: "baseline_results/cvrp_lkh/Vrp-Set-X-n376/Vrp-Set-X-n376-lkh/0.lkh1.tour" ... done
* 55: Cost = 0_14963448, Time = 2.15 sec. 
Writing OUTPUT_TOUR_FILE: "baseline_results/cvrp_lkh/Vrp-Set-X-n376/Vrp-Set-X-n376-lkh/0.lkh1.tour" ... done
* 59: Cost = 0_14962724, Time = 2.19 sec. 
Writing OUTPUT_TOUR_FILE: "baseline_results/cvrp_lkh/Vrp-Set-X-n376/Vrp-Set-X-n376-lkh/0.lkh1.tour" ... done
* 63: Cost = 0_14945804, Time = 2.31 sec. 
Writing OUTPUT_TOUR_FILE: "baseline_results/cvrp_lkh/Vrp-Set-X-n376/Vrp-Set-X-n376-lkh/0.lkh1.tour" ... done
* 66: Cost = 0_14944444, Time = 2.39 sec. 
Writing OUTPUT_TOUR_FILE: "baseline_results/cvrp_lkh/Vrp-Set-X-n376/Vrp-Set-X-n376-lkh/0.lkh1.tour" ... done
* 67: Cost = 0_14942540, Time = 2.39 sec. 
Writing OUTPUT_TOUR_FILE: "baseline_results/cvrp_lkh/Vrp-Set-X-n376/Vrp-Set-X-n376-lkh/0.lkh1.tour" ... done
* 87: Cost = 0_14936640, Time = 2.73 sec. 
Writing OUTPUT_TOUR_FILE: "baseline_results/cvrp_lkh/Vrp-Set-X-n376/Vrp-Set-X-n376-lkh/0.lkh1.tour" ... done
* 88: Cost = 0_14935991, Time = 2.76 sec. 
Writing OUTPUT_TOUR_FILE: "baseline_results/cvrp_lkh/Vrp-Set-X-n376/Vrp-Set-X-n376-lkh/0.lkh1.tour" ... done
* 89: Cost = 0_14934610, Time = 2.77 sec. 
Writing OUTPUT_TOUR_FILE: "baseline_results/cvrp_lkh/Vrp-Set-X-n376/Vrp-Set-X-n376-lkh/0.lkh1.tour" ... done
* 91: Cost = 0_14933539, Time = 2.79 sec. 
Writing OUTPUT_TOUR_FILE: "baseline_results/cvrp_lkh/Vrp-Set-X-n376/Vrp-Set-X-n376-lkh/0.lkh1.tour" ... done
* 96: Cost = 0_14931284, Time = 2.83 sec. 
Writing OUTPUT_TOUR_FILE: "baseline_results/cvrp_lkh/Vrp-Set-X-n376/Vrp-Set-X-n376-lkh/0.lkh1.tour" ... done
* 97: Cost = 0_14930306, Time = 2.83 sec. 
Writing OUTPUT_TOUR_FILE: "baseline_results/cvrp_lkh/Vrp-Set-X-n376/Vrp-Set-X-n376-lkh/0.lkh1.tour" ... done
* 98: Cost = 0_14929838, Time = 2.85 sec. 
Writing OUTPUT_TOUR_FILE: "baseline_results/cvrp_lkh/Vrp-Set-X-n376/Vrp-Set-X-n376-lkh/0.lkh1.tour" ... done
* 121: Cost = 0_14929817, Time = 3.10 sec. 
Writing OUTPUT_TOUR_FILE: "baseline_results/cvrp_lkh/Vrp-Set-X-n376/Vrp-Set-X-n376-lkh/0.lkh1.tour" ... done
* 143: Cost = 0_14929267, Time = 3.38 sec. 
Writing OUTPUT_TOUR_FILE: "baseline_results/cvrp_lkh/Vrp-Set-X-n376/Vrp-Set-X-n376-lkh/0.lkh1.tour" ... done
* 144: Cost = 0_14920982, Time = 3.38 sec. 
Writing OUTPUT_TOUR_FILE: "baseline_results/cvrp_lkh/Vrp-Set-X-n376/Vrp-Set-X-n376-lkh/0.lkh1.tour" ... done
* 157: Cost = 0_14920498, Time = 3.77 sec. 
Writing OUTPUT_TOUR_FILE: "baseline_results/cvrp_lkh/Vrp-Set-X-n376/Vrp-Set-X-n376-lkh/0.lkh1.tour" ... done
* 191: Cost = 0_14919286, Time = 4.19 sec. 
Writing OUTPUT_TOUR_FILE: "baseline_results/cvrp_lkh/Vrp-Set-X-n376/Vrp-Set-X-n376-lkh/0.lkh1.tour" ... done
* 193: Cost = 0_14914591, Time = 4.22 sec. 
Writing OUTPUT_TOUR_FILE: "baseline_results/cvrp_lkh/Vrp-Set-X-n376/Vrp-Set-X-n376-lkh/0.lkh1.tour" ... done
* 194: Cost = 0_14912386, Time = 4.23 sec. 
Writing OUTPUT_TOUR_FILE: "baseline_results/cvrp_lkh/Vrp-Set-X-n376/Vrp-Set-X-n376-lkh/0.lkh1.tour" ... done
* 222: Cost = 0_14911067, Time = 4.74 sec. 
Writing OUTPUT_TOUR_FILE: "baseline_results/cvrp_lkh/Vrp-Set-X-n376/Vrp-Set-X-n376-lkh/0.lkh1.tour" ... done
* 266: Cost = 0_14910874, Time = 5.20 sec. 
Writing OUTPUT_TOUR_FILE: "baseline_results/cvrp_lkh/Vrp-Set-X-n376/Vrp-Set-X-n376-lkh/0.lkh1.tour" ... done
* 270: Cost = 0_14892337, Time = 5.25 sec. 
Writing OUTPUT_TOUR_FILE: "baseline_results/cvrp_lkh/Vrp-Set-X-n376/Vrp-Set-X-n376-lkh/0.lkh1.tour" ... done
* 291: Cost = 0_14892240, Time = 5.47 sec. 
Writing OUTPUT_TOUR_FILE: "baseline_results/cvrp_lkh/Vrp-Set-X-n376/Vrp-Set-X-n376-lkh/0.lkh1.tour" ... done
* 315: Cost = 0_14891437, Time = 5.93 sec. 
Writing OUTPUT_TOUR_FILE: "baseline_results/cvrp_lkh/Vrp-Set-X-n376/Vrp-Set-X-n376-lkh/0.lkh1.tour" ... done
* 318: Cost = 0_14891114, Time = 5.94 sec. 
Writing OUTPUT_TOUR_FILE: "baseline_results/cvrp_lkh/Vrp-Set-X-n376/Vrp-Set-X-n376-lkh/0.lkh1.tour" ... done
* 323: Cost = 0_14889359, Time = 5.96 sec. 
Writing OUTPUT_TOUR_FILE: "baseline_results/cvrp_lkh/Vrp-Set-X-n376/Vrp-Set-X-n376-lkh/0.lkh1.tour" ... done
* 327: Cost = 0_14887198, Time = 6.00 sec. 
Writing OUTPUT_TOUR_FILE: "baseline_results/cvrp_lkh/Vrp-Set-X-n376/Vrp-Set-X-n376-lkh/0.lkh1.tour" ... done
* 353: Cost = 0_14887177, Time = 6.35 sec. 
Writing OUTPUT_TOUR_FILE: "baseline_results/cvrp_lkh/Vrp-Set-X-n376/Vrp-Set-X-n376-lkh/0.lkh1.tour" ... done
* 366: Cost = 0_14887162, Time = 6.58 sec. 
Writing OUTPUT_TOUR_FILE: "baseline_results/cvrp_lkh/Vrp-Set-X-n376/Vrp-Set-X-n376-lkh/0.lkh1.tour" ... done
* 367: Cost = 0_14882685, Time = 6.60 sec. 
Writing OUTPUT_TOUR_FILE: "baseline_results/cvrp_lkh/Vrp-Set-X-n376/Vrp-Set-X-n376-lkh/0.lkh1.tour" ... done
* 378: Cost = 0_14882362, Time = 6.92 sec. 
Writing OUTPUT_TOUR_FILE: "baseline_results/cvrp_lkh/Vrp-Set-X-n376/Vrp-Set-X-n376-lkh/0.lkh1.tour" ... done
* 401: Cost = 0_14881816, Time = 7.10 sec. 
Writing OUTPUT_TOUR_FILE: "baseline_results/cvrp_lkh/Vrp-Set-X-n376/Vrp-Set-X-n376-lkh/0.lkh1.tour" ... done
* 428: Cost = 0_14880460, Time = 7.53 sec. 
Writing OUTPUT_TOUR_FILE: "baseline_results/cvrp_lkh/Vrp-Set-X-n376/Vrp-Set-X-n376-lkh/0.lkh1.tour" ... done
* 449: Cost = 0_14880336, Time = 8.15 sec. 
Writing OUTPUT_TOUR_FILE: "baseline_results/cvrp_lkh/Vrp-Set-X-n376/Vrp-Set-X-n376-lkh/0.lkh1.tour" ... done
* 463: Cost = 0_14876800, Time = 8.36 sec. 
Writing OUTPUT_TOUR_FILE: "baseline_results/cvrp_lkh/Vrp-Set-X-n376/Vrp-Set-X-n376-lkh/0.lkh1.tour" ... done
* 489: Cost = 0_14875651, Time = 8.63 sec. 
Writing OUTPUT_TOUR_FILE: "baseline_results/cvrp_lkh/Vrp-Set-X-n376/Vrp-Set-X-n376-lkh/0.lkh1.tour" ... done
* 492: Cost = 0_14875377, Time = 8.65 sec. 
Writing OUTPUT_TOUR_FILE: "baseline_results/cvrp_lkh/Vrp-Set-X-n376/Vrp-Set-X-n376-lkh/0.lkh1.tour" ... done
* 496: Cost = 0_14871657, Time = 8.69 sec. 
Writing OUTPUT_TOUR_FILE: "baseline_results/cvrp_lkh/Vrp-Set-X-n376/Vrp-Set-X-n376-lkh/0.lkh1.tour" ... done
* 501: Cost = 0_14870231, Time = 8.77 sec. 
Writing OUTPUT_TOUR_FILE: "baseline_results/cvrp_lkh/Vrp-Set-X-n376/Vrp-Set-X-n376-lkh/0.lkh1.tour" ... done
* 503: Cost = 0_14870137, Time = 8.79 sec. 
Writing OUTPUT_TOUR_FILE: "baseline_results/cvrp_lkh/Vrp-Set-X-n376/Vrp-Set-X-n376-lkh/0.lkh1.tour" ... done
* 561: Cost = 0_14869867, Time = 9.75 sec. 
Writing OUTPUT_TOUR_FILE: "baseline_results/cvrp_lkh/Vrp-Set-X-n376/Vrp-Set-X-n376-lkh/0.lkh1.tour" ... done
* 570: Cost = 0_14869797, Time = 9.82 sec. 
Writing OUTPUT_TOUR_FILE: "baseline_results/cvrp_lkh/Vrp-Set-X-n376/Vrp-Set-X-n376-lkh/0.lkh1.tour" ... done
* 581: Cost = 0_14868922, Time = 10.03 sec. 
Writing OUTPUT_TOUR_FILE: "baseline_results/cvrp_lkh/Vrp-Set-X-n376/Vrp-Set-X-n376-lkh/0.lkh1.tour" ... done
* 584: Cost = 0_14868716, Time = 10.07 sec. 
Writing OUTPUT_TOUR_FILE: "baseline_results/cvrp_lkh/Vrp-Set-X-n376/Vrp-Set-X-n376-lkh/0.lkh1.tour" ... done
* 613: Cost = 0_14867315, Time = 10.58 sec. 
Writing OUTPUT_TOUR_FILE: "baseline_results/cvrp_lkh/Vrp-Set-X-n376/Vrp-Set-X-n376-lkh/0.lkh1.tour" ... done
* 627: Cost = 0_14865323, Time = 10.80 sec. 
Writing OUTPUT_TOUR_FILE: "baseline_results/cvrp_lkh/Vrp-Set-X-n376/Vrp-Set-X-n376-lkh/0.lkh1.tour" ... done
* 635: Cost = 0_14865214, Time = 10.83 sec. 
Writing OUTPUT_TOUR_FILE: "baseline_results/cvrp_lkh/Vrp-Set-X-n376/Vrp-Set-X-n376-lkh/0.lkh1.tour" ... done
* 662: Cost = 0_14855343, Time = 11.40 sec. 
Writing OUTPUT_TOUR_FILE: "baseline_results/cvrp_lkh/Vrp-Set-X-n376/Vrp-Set-X-n376-lkh/0.lkh1.tour" ... done
* 708: Cost = 0_14853779, Time = 12.07 sec. 
Writing OUTPUT_TOUR_FILE: "baseline_results/cvrp_lkh/Vrp-Set-X-n376/Vrp-Set-X-n376-lkh/0.lkh1.tour" ... done
* 753: Cost = 0_14852860, Time = 12.81 sec. 
Writing OUTPUT_TOUR_FILE: "baseline_results/cvrp_lkh/Vrp-Set-X-n376/Vrp-Set-X-n376-lkh/0.lkh1.tour" ... done
* 793: Cost = 0_14851661, Time = 13.53 sec. 
Writing OUTPUT_TOUR_FILE: "baseline_results/cvrp_lkh/Vrp-Set-X-n376/Vrp-Set-X-n376-lkh/0.lkh1.tour" ... done
* 794: Cost = 0_14844603, Time = 13.54 sec. 
Writing OUTPUT_TOUR_FILE: "baseline_results/cvrp_lkh/Vrp-Set-X-n376/Vrp-Set-X-n376-lkh/0.lkh1.tour" ... done
* 798: Cost = 0_14844109, Time = 13.57 sec. 
Writing OUTPUT_TOUR_FILE: "baseline_results/cvrp_lkh/Vrp-Set-X-n376/Vrp-Set-X-n376-lkh/0.lkh1.tour" ... done
* 878: Cost = 0_14842935, Time = 14.42 sec. 
Writing OUTPUT_TOUR_FILE: "baseline_results/cvrp_lkh/Vrp-Set-X-n376/Vrp-Set-X-n376-lkh/0.lkh1.tour" ... done
* 935: Cost = 0_14839315, Time = 15.38 sec. 
Writing OUTPUT_TOUR_FILE: "baseline_results/cvrp_lkh/Vrp-Set-X-n376/Vrp-Set-X-n376-lkh/0.lkh1.tour" ... done
* 1140: Cost = 0_14832854, Time = 18.26 sec. 
Writing OUTPUT_TOUR_FILE: "baseline_results/cvrp_lkh/Vrp-Set-X-n376/Vrp-Set-X-n376-lkh/0.lkh1.tour" ... done
* 1144: Cost = 0_14832472, Time = 18.29 sec. 
Writing OUTPUT_TOUR_FILE: "baseline_results/cvrp_lkh/Vrp-Set-X-n376/Vrp-Set-X-n376-lkh/0.lkh1.tour" ... done
* 1152: Cost = 0_14831924, Time = 18.35 sec. 
Writing OUTPUT_TOUR_FILE: "baseline_results/cvrp_lkh/Vrp-Set-X-n376/Vrp-Set-X-n376-lkh/0.lkh1.tour" ... done
* 1162: Cost = 0_14830748, Time = 18.44 sec. 
Writing OUTPUT_TOUR_FILE: "baseline_results/cvrp_lkh/Vrp-Set-X-n376/Vrp-Set-X-n376-lkh/0.lkh1.tour" ... done
* 1204: Cost = 0_14829424, Time = 18.85 sec. 
Writing OUTPUT_TOUR_FILE: "baseline_results/cvrp_lkh/Vrp-Set-X-n376/Vrp-Set-X-n376-lkh/0.lkh1.tour" ... done
* 1208: Cost = 0_14829050, Time = 18.96 sec. 
Writing OUTPUT_TOUR_FILE: "baseline_results/cvrp_lkh/Vrp-Set-X-n376/Vrp-Set-X-n376-lkh/0.lkh1.tour" ... done
* 1242: Cost = 0_14828315, Time = 19.47 sec. 
Writing OUTPUT_TOUR_FILE: "baseline_results/cvrp_lkh/Vrp-Set-X-n376/Vrp-Set-X-n376-lkh/0.lkh1.tour" ... done
* 1262: Cost = 0_14828178, Time = 19.79 sec. 
Writing OUTPUT_TOUR_FILE: "baseline_results/cvrp_lkh/Vrp-Set-X-n376/Vrp-Set-X-n376-lkh/0.lkh1.tour" ... done
* 1288: Cost = 0_14826931, Time = 20.10 sec. 
Writing OUTPUT_TOUR_FILE: "baseline_results/cvrp_lkh/Vrp-Set-X-n376/Vrp-Set-X-n376-lkh/0.lkh1.tour" ... done
* 1403: Cost = 0_14825867, Time = 21.55 sec. 
Writing OUTPUT_TOUR_FILE: "baseline_results/cvrp_lkh/Vrp-Set-X-n376/Vrp-Set-X-n376-lkh/0.lkh1.tour" ... done
* 1780: Cost = 0_14824578, Time = 26.97 sec. 
Writing OUTPUT_TOUR_FILE: "baseline_results/cvrp_lkh/Vrp-Set-X-n376/Vrp-Set-X-n376-lkh/0.lkh1.tour" ... done
* 1913: Cost = 0_14824231, Time = 28.66 sec. 
Writing OUTPUT_TOUR_FILE: "baseline_results/cvrp_lkh/Vrp-Set-X-n376/Vrp-Set-X-n376-lkh/0.lkh1.tour" ... done
* 1963: Cost = 0_14823460, Time = 29.62 sec. 
Writing OUTPUT_TOUR_FILE: "baseline_results/cvrp_lkh/Vrp-Set-X-n376/Vrp-Set-X-n376-lkh/0.lkh1.tour" ... done
* 2035: Cost = 0_14823347, Time = 30.83 sec. 
Writing OUTPUT_TOUR_FILE: "baseline_results/cvrp_lkh/Vrp-Set-X-n376/Vrp-Set-X-n376-lkh/0.lkh1.tour" ... done
* 2105: Cost = 0_14821680, Time = 31.93 sec. 
Writing OUTPUT_TOUR_FILE: "baseline_results/cvrp_lkh/Vrp-Set-X-n376/Vrp-Set-X-n376-lkh/0.lkh1.tour" ... done
* 2106: Cost = 0_14821652, Time = 31.93 sec. 
Writing OUTPUT_TOUR_FILE: "baseline_results/cvrp_lkh/Vrp-Set-X-n376/Vrp-Set-X-n376-lkh/0.lkh1.tour" ... done
* 2149: Cost = 0_14820977, Time = 32.49 sec. 
Writing OUTPUT_TOUR_FILE: "baseline_results/cvrp_lkh/Vrp-Set-X-n376/Vrp-Set-X-n376-lkh/0.lkh1.tour" ... done
* 2152: Cost = 0_14818627, Time = 32.51 sec. 
Writing OUTPUT_TOUR_FILE: "baseline_results/cvrp_lkh/Vrp-Set-X-n376/Vrp-Set-X-n376-lkh/0.lkh1.tour" ... done
* 2160: Cost = 0_14818587, Time = 32.59 sec. 
Writing OUTPUT_TOUR_FILE: "baseline_results/cvrp_lkh/Vrp-Set-X-n376/Vrp-Set-X-n376-lkh/0.lkh1.tour" ... done
* 2281: Cost = 0_14817177, Time = 34.36 sec. 
Writing OUTPUT_TOUR_FILE: "baseline_results/cvrp_lkh/Vrp-Set-X-n376/Vrp-Set-X-n376-lkh/0.lkh1.tour" ... done
* 3079: Cost = 0_14817141, Time = 46.49 sec. 
Writing OUTPUT_TOUR_FILE: "baseline_results/cvrp_lkh/Vrp-Set-X-n376/Vrp-Set-X-n376-lkh/0.lkh1.tour" ... done
* 3101: Cost = 0_14811283, Time = 46.80 sec. 
Writing OUTPUT_TOUR_FILE: "baseline_results/cvrp_lkh/Vrp-Set-X-n376/Vrp-Set-X-n376-lkh/0.lkh1.tour" ... done
* 3114: Cost = 0_14811043, Time = 47.20 sec. 
Writing OUTPUT_TOUR_FILE: "baseline_results/cvrp_lkh/Vrp-Set-X-n376/Vrp-Set-X-n376-lkh/0.lkh1.tour" ... done
* 3133: Cost = 0_14809616, Time = 47.57 sec. 
Writing OUTPUT_TOUR_FILE: "baseline_results/cvrp_lkh/Vrp-Set-X-n376/Vrp-Set-X-n376-lkh/0.lkh1.tour" ... done
* 3170: Cost = 0_14806817, Time = 48.11 sec. 
Writing OUTPUT_TOUR_FILE: "baseline_results/cvrp_lkh/Vrp-Set-X-n376/Vrp-Set-X-n376-lkh/0.lkh1.tour" ... done
* 3341: Cost = 0_14806641, Time = 50.40 sec. 
Writing OUTPUT_TOUR_FILE: "baseline_results/cvrp_lkh/Vrp-Set-X-n376/Vrp-Set-X-n376-lkh/0.lkh1.tour" ... done
* 3695: Cost = 0_14806491, Time = 55.75 sec. 
Writing OUTPUT_TOUR_FILE: "baseline_results/cvrp_lkh/Vrp-Set-X-n376/Vrp-Set-X-n376-lkh/0.lkh1.tour" ... done
* 5244: Cost = 0_14806361, Time = 79.23 sec. 
Writing OUTPUT_TOUR_FILE: "baseline_results/cvrp_lkh/Vrp-Set-X-n376/Vrp-Set-X-n376-lkh/0.lkh1.tour" ... done
* 5692: Cost = 0_14805369, Time = 87.72 sec. 
Writing OUTPUT_TOUR_FILE: "baseline_results/cvrp_lkh/Vrp-Set-X-n376/Vrp-Set-X-n376-lkh/0.lkh1.tour" ... done
* 6370: Cost = 0_14804858, Time = 97.77 sec. 
Writing OUTPUT_TOUR_FILE: "baseline_results/cvrp_lkh/Vrp-Set-X-n376/Vrp-Set-X-n376-lkh/0.lkh1.tour" ... done
* 9789: Cost = 0_14804326, Time = 143.11 sec. 
Writing OUTPUT_TOUR_FILE: "baseline_results/cvrp_lkh/Vrp-Set-X-n376/Vrp-Set-X-n376-lkh/0.lkh1.tour" ... done
Population:
  1: 0_14804326
Run 1: Cost = 0_14804326, Time = 146.59 sec. 

Successes/Runs = 0/1 
Cost.min = 14804326, Cost.avg = 14804326.00, Cost.max = 14804326
Gap.min = 0.0000%, Gap.avg = 0.0000%, Gap.max = 0.0000%
Penalty.min = 0, Penalty.avg = 0.00, Penalty.max = 0
Trials.min = 10000, Trials.avg = 10000.0, Trials.max = 10000
Time.min = 146.59 sec., Time.avg = 146.59 sec., Time.max = 146.59 sec.
Time.total = 146.80 sec.
  Size.min = 3, Size.max = 4, Penalty = 0
  Cost.min = 25823, Cost.max = 277600, Cost.sum = 14804326
Best CVRP solution:
  Cost = 0_14804326

