experiment/data/lkh-res/Vrp-Set-X-n376/Vrp-Set-X-n376-lkh/0.lkh1.tour
NAME : 0.14804326.tour
COMMENT : Length = 14804326
COMMENT : Found by LKH-3 [Keld Helsgaun] Tue Apr  9 07:30:51 2024
TYPE : TOUR
DIMENSION : 469
TOUR_SECTION
1
90
223
348
377
29
215
187
340
411
27
121
110
189
382
22
334
38
101
434
244
95
127
239
415
220
51
221
69
392
286
151
83
21
400
145
34
245
203
407
47
355
363
72
406
302
211
235
138
378
170
11
154
3
454
346
52
15
113
451
140
33
191
375
393
31
228
200
295
386
318
265
167
369
414
109
321
6
195
424
229
172
66
246
391
9
294
136
285
441
341
241
358
122
449
256
185
271
222
387
99
205
234
345
431
89
233
263
8
442
366
316
82
50
450
197
238
352
12
427
7
266
190
114
448
13
283
298
365
430
142
60
262
10
383
194
288
134
98
380
276
94
212
171
381
103
158
160
73
379
188
278
14
20
419
331
224
257
247
467
250
57
68
323
435
335
258
118
253
437
40
243
231
44
456
186
269
63
356
432
102
207
107
92
455
198
174
42
4
465
227
19
130
18
395
351
368
181
25
398
86
124
35
338
420
324
128
208
264
447
156
364
371
329
446
376
104
16
261
466
74
237
254
141
394
28
70
184
326
384
5
139
230
277
385
359
153
91
232
397
120
299
88
289
438
77
301
56
300
426
332
199
179
251
423
306
152
17
339
439
333
304
273
313
457
342
176
30
79
405
24
119
112
108
401
242
252
157
87
418
180
32
132
214
433
328
126
137
105
399
143
146
357
284
443
305
55
133
310
463
320
267
159
303
462
161
59
61
319
436
216
248
46
173
412
150
292
177
183
425
225
325
209
317
408
255
347
116
111
413
155
315
270
296
404
249
84
117
344
444
169
43
279
210
403
287
100
54
349
409
372
353
291
236
459
75
115
314
62
458
26
282
309
327
429
362
281
343
36
445
41
312
280
373
464
48
204
330
367
410
165
147
80
39
402
96
274
196
97
388
350
213
64
23
389
178
275
144
129
461
259
71
217
226
440
65
297
272
192
421
149
85
2
307
416
162
106
240
37
417
164
361
322
260
469
81
360
202
58
396
336
93
337
76
390
308
67
374
206
468
168
218
148
123
452
131
182
49
193
460
175
45
163
166
453
135
293
125
78
422
219
268
354
311
428
201
53
290
370
-1
EOF
